c FILE /home/rafael/Documents/HappySet/MIHS/inputs/happygen/output/graph_scale_free_k4_p0.2_v100_20241127_083824.txt
c SOURCE This is a scale-free graph formed for the happy graph colouring problem.
c DESCRIPTION It was generated using the problem generator of Rhyd Lewis
c
c GRAPH STATS
c Seed                             = -2093365400
c Number of Nodes                  = 100
c Number of colours k              = 4
c Number of pre-assignments        = 20
c Number of links per new node     = 5
c Density                          = 0.0979798
c 
c The degrees of nodes 1 to 100, respectively, are as follows 
c [34, 34, 32, 31, 30, 26, 25, 24, 21, 19, 18, 17, 17, 16, 16, 15, 15, 15, 14, 13, 13, 13, 11, 11, 10, 10, 
c  10, 10, 10, 9, 8, 8, 8, 8, 8, 8, 8, 8, 8, 8, 8, 8, 8, 8, 7, 7, 7, 7, 7, 7, 7, 
c  7, 7, 7, 6, 6, 6, 6, 6, 6, 6, 6, 6, 6, 6, 6, 6, 6, 6, 6, 6, 6, 6, 5, 5, 5, 
c  5, 5, 5, 5, 5, 5, 5, 5, 5, 5, 5, 5, 5, 5, 5, 5, 5, 5, 5, 5, 5, 5, 5, 5] 
c  
p edge 100 485 4
e 1 2
e 1 3
e 1 4
e 1 5
e 1 7
e 1 8
e 1 9
e 1 10
e 1 12
e 1 13
e 1 15
e 1 17
e 1 18
e 1 20
e 1 21
e 1 24
e 1 26
e 1 27
e 1 28
e 1 39
e 1 41
e 1 44
e 1 45
e 1 48
e 1 52
e 1 63
e 1 64
e 1 71
e 1 74
e 1 77
e 1 92
e 1 94
e 1 95
e 1 100
e 2 4
e 2 5
e 2 6
e 2 7
e 2 8
e 2 9
e 2 12
e 2 14
e 2 15
e 2 17
e 2 18
e 2 20
e 2 21
e 2 25
e 2 35
e 2 36
e 2 39
e 2 43
e 2 55
e 2 57
e 2 60
e 2 62
e 2 65
e 2 69
e 2 72
e 2 73
e 2 74
e 2 79
e 2 80
e 2 82
e 2 84
e 2 87
e 2 92
e 3 4
e 3 5
e 3 6
e 3 8
e 3 9
e 3 10
e 3 11
e 3 13
e 3 16
e 3 17
e 3 20
e 3 21
e 3 22
e 3 23
e 3 26
e 3 27
e 3 34
e 3 40
e 3 44
e 3 47
e 3 49
e 3 51
e 3 55
e 3 57
e 3 58
e 3 61
e 3 63
e 3 69
e 3 85
e 3 88
e 3 96
e 4 5
e 4 6
e 4 8
e 4 9
e 4 11
e 4 13
e 4 19
e 4 23
e 4 28
e 4 29
e 4 30
e 4 33
e 4 41
e 4 45
e 4 47
e 4 48
e 4 50
e 4 53
e 4 54
e 4 55
e 4 57
e 4 62
e 4 63
e 4 69
e 4 75
e 4 81
e 4 83
e 4 86
e 5 7
e 5 8
e 5 9
e 5 10
e 5 11
e 5 12
e 5 15
e 5 17
e 5 19
e 5 20
e 5 24
e 5 26
e 5 28
e 5 31
e 5 38
e 5 42
e 5 43
e 5 56
e 5 60
e 5 62
e 5 66
e 5 70
e 5 73
e 5 74
e 5 75
e 5 79
e 6 7
e 6 11
e 6 12
e 6 13
e 6 18
e 6 19
e 6 26
e 6 31
e 6 32
e 6 33
e 6 48
e 6 52
e 6 55
e 6 68
e 6 72
e 6 74
e 6 77
e 6 82
e 6 88
e 6 91
e 6 96
e 6 99
e 6 100
e 7 8
e 7 9
e 7 14
e 7 20
e 7 21
e 7 33
e 7 40
e 7 42
e 7 45
e 7 57
e 7 58
e 7 60
e 7 61
e 7 66
e 7 75
e 7 78
e 7 81
e 7 82
e 7 85
e 7 99
e 7 100
e 8 9
e 8 12
e 8 14
e 8 16
e 8 19
e 8 21
e 8 22
e 8 24
e 8 25
e 8 32
e 8 37
e 8 42
e 8 56
e 8 67
e 8 75
e 8 84
e 8 87
e 8 96
e 9 12
e 9 13
e 9 28
e 9 29
e 9 42
e 9 49
e 9 52
e 9 54
e 9 59
e 9 68
e 9 69
e 9 82
e 9 89
e 9 97
e 10 12
e 10 14
e 10 17
e 10 20
e 10 35
e 10 46
e 10 47
e 10 58
e 10 59
e 10 67
e 10 68
e 10 70
e 10 84
e 10 86
e 10 95
e 10 96
e 11 12
e 11 14
e 11 16
e 11 27
e 11 38
e 11 46
e 11 59
e 11 71
e 11 76
e 11 78
e 11 83
e 11 97
e 11 98
e 11 100
e 12 18
e 12 23
e 12 25
e 12 31
e 12 43
e 12 70
e 12 82
e 12 88
e 12 98
e 13 18
e 13 24
e 13 26
e 13 29
e 13 30
e 13 32
e 13 33
e 13 46
e 13 61
e 13 67
e 13 77
e 13 85
e 14 25
e 14 30
e 14 36
e 14 37
e 14 39
e 14 41
e 14 45
e 14 46
e 14 53
e 14 64
e 14 89
e 15 17
e 15 21
e 15 29
e 15 37
e 15 42
e 15 51
e 15 53
e 15 61
e 15 73
e 15 79
e 15 85
e 15 93
e 15 94
e 16 20
e 16 24
e 16 31
e 16 32
e 16 34
e 16 37
e 16 50
e 16 55
e 16 56
e 16 64
e 16 74
e 16 81
e 17 23
e 17 25
e 17 41
e 17 48
e 17 56
e 17 58
e 17 79
e 17 83
e 17 96
e 18 32
e 18 34
e 18 36
e 18 49
e 18 56
e 18 64
e 18 71
e 18 75
e 18 87
e 18 94
e 19 20
e 19 30
e 19 31
e 19 33
e 19 40
e 19 41
e 19 60
e 19 76
e 19 90
e 19 92
e 20 31
e 20 38
e 20 51
e 20 54
e 20 88
e 21 30
e 21 40
e 21 47
e 21 52
e 21 72
e 21 86
e 21 93
e 22 25
e 22 29
e 22 33
e 22 38
e 22 53
e 22 57
e 22 65
e 22 67
e 22 83
e 22 84
e 22 91
e 23 27
e 23 38
e 23 39
e 23 45
e 23 49
e 23 70
e 23 80
e 24 36
e 24 59
e 24 72
e 24 77
e 24 78
e 24 87
e 25 35
e 25 43
e 25 65
e 25 76
e 26 28
e 26 44
e 26 58
e 26 62
e 26 86
e 27 31
e 27 57
e 27 68
e 27 70
e 27 90
e 27 99
e 28 47
e 28 52
e 28 59
e 28 66
e 28 81
e 29 44
e 29 50
e 29 62
e 29 65
e 29 85
e 30 34
e 30 36
e 30 49
e 30 61
e 31 63
e 32 35
e 32 63
e 32 83
e 33 45
e 33 95
e 34 35
e 34 40
e 34 53
e 34 55
e 35 60
e 35 91
e 35 95
e 36 39
e 36 48
e 36 50
e 37 45
e 37 50
e 37 51
e 37 94
e 38 71
e 38 91
e 38 92
e 39 76
e 39 90
e 39 95
e 40 44
e 40 78
e 40 80
e 41 72
e 41 80
e 41 93
e 42 43
e 42 65
e 42 98
e 43 87
e 43 93
e 43 97
e 44 68
e 44 69
e 44 92
e 46 54
e 46 59
e 46 78
e 47 51
e 47 67
e 48 81
e 48 97
e 49 64
e 49 66
e 50 88
e 50 89
e 51 54
e 51 76
e 52 90
e 52 97
e 53 73
e 53 93
e 54 94
e 54 99
e 56 79
e 58 73
e 60 90
e 61 66
e 62 80
e 63 86
e 64 77
e 65 84
e 66 98
e 67 71
e 68 100
e 69 89
e 70 91
e 71 99
e 72 89
e 73 98
n 4 1
n 33 1
n 39 4
n 49 2
n 52 4
n 55 1
n 57 1
n 60 4
n 62 1
n 63 1
n 64 2
n 68 2
n 73 1
n 75 1
n 79 2
n 89 4
n 93 4
n 94 3
n 96 4
n 100 2
